! RHF 6-311G  largeprint
%Output
        print[p_basis]  5
end

%pal    nprocs  4
        end

%scf
        sthresh 1.0e-8 # default 1e-8
end

%nbo
NBOKEYLIST="$NBO CMO AONAO=W NAOMO=W PLOT $end"
end

* xyzfile 0 1 Ciba.xyz
